c FullAdder
c 6  : sum
c 9  : carry_out_lit
c i 6  9  2  3  5 0
c 2  : a_21
c 3  : b_22
c 4  : a_21 XOR b_22
c 5  : c_23
c 6  : (a_21 XOR b_22) XOR c_23
c 7  : a_21 AND b_22
c 8  : (a_21 XOR b_22) AND c_23
c 9  : (a_21 AND b_22) OR ((a_21 XOR b_22) AND c_23)
p cnf 8 17
2  3  -4  0
-2  -3  -4  0
2  -3  4  0
-2  3  4  0
4  5  -6  0
-4  -5  -6  0
4  -5  6  0
-4  5  6  0
2  -7  0
3  -7  0
-2  -3  7  0
4  -8  0
5  -8  0
-4  -5  8  0
-7  9  0
-8  9  0
7  8  -9  0
